 &control
    calculation = 'scf'
    tprnfor = .true.
    tstress = .true.
    pseudo_dir = '/home/uezono/pseudo/'
    disk_io = 'none'
 /
 &system
    ibrav = 0
    nat = 8
    ntyp = 1
    ecutwfc = 70.0
 /
 &electrons
    diagonalization = 'david'
    conv_thr = 1.0d-9
 /
K_POINTS automatic
 4 4 4  1 1 1
!    ibrav = 0, nat = 8, ntyp = 1
CELL_PARAMETERS bohr
   10.3295528209566356    0.0000000000000000    0.0000000000000000
    0.0000000000000000   10.3295528209566356    0.0000000000000000
    0.0000000000000000    0.0000000000000000   10.3295528209566356
ATOMIC_SPECIES
 Si   28.08550   Si.pbe-n-kjpaw_psl.0.1.UPF
ATOMIC_POSITIONS crystal
 Si   0.8808085767157579  0.8749999999999999  0.8749999999999999
 Si   0.8749999999999999  0.3750000000000000  0.3750000000000000
 Si   0.3750000000000000  0.8749999999999999  0.3750000000000000
 Si   0.3750000000000000  0.3750000000000000  0.8749999999999999
 Si   0.1250000000000000  0.1250000000000000  0.1250000000000000
 Si   0.1250000000000000  0.6250000000000000  0.6250000000000000
 Si   0.6250000000000000  0.1308085767157579  0.6250000000000000
 Si   0.6250000000000000  0.6250000000000000  0.1250000000000000